outputs/case_408.model.txt
operating_business = False
license_held = False
agent = False
broker = True
notary = False
approved_by_authority = False
insurance_type = False
deposit_paid = False
insurance_purchased = False
illegal_operation = False
business_allowed = False
insurance_type_correct = False
license_required = False
deposit_and_insurance_required = False
penalty = False